#N B3LYP/6-31G(d) FREQ Geom=Connectivity 

C2H4O

0 1
C 
C 1 B1
H 2 B2 1 A1
O 2 B3 1 A2 3 D1
H 4 B4 2 A3 1 D2
H 1 B5 2 A4 3 D3
H 1 B6 2 A5 3 D4

B1 1.411567866
B2 1.094320210
B3 1.285082169
B4 1.291133169
B5 1.089140205
B6 1.094023599
A1 130.5162878
A2 110.7714410
A3 77.43656074
A4 121.8093220
A5 112.5389121
D1 177.0874267
D2 -10.13572007
D3 -23.40305821
D4 115.6047561

1 2 2 6 1 7 1
2 1 2 3 1 4 1
3 2 1
4 2 1 5 1
5 4 1
6 1 1
7 1 1

